
Gurobi 9.1.2 (win64) logging started Tue Dec  7 11:53:19 2021

Gurobi Optimizer version 9.1.2 build v9.1.2rc0 (win64)
Thread count: 8 physical cores, 8 logical processors, using up to 8 threads
Optimize a model with 1 rows, 26 columns and 25 nonzeros
Model fingerprint: 0x38bba7d4
Variable types: 1 continuous, 25 integer (25 binary)
Coefficient statistics:
  Matrix range     [1e+00, 1e+01]
  Objective range  [1e+00, 1e+00]
  Bounds range     [7e-01, 7e-01]
  RHS range        [1e+01, 1e+01]
Presolve time: 0.00s
Presolved: 1 rows, 26 columns, 25 nonzeros
Variable types: 1 continuous, 25 integer (25 binary)

Root simplex log...

Iteration    Objective       Primal Inf.    Dual Inf.      Time
       0   -7.3917970e-01   4.184399e-02   0.000000e+00     15s
       2   -7.3917970e-01   0.000000e+00   0.000000e+00     15s

Root relaxation: objective -7.391797e-01, 2 iterations, 0.00 seconds

    Nodes    |    Current Node    |     Objective Bounds      |     Work
 Expl Unexpl |  Obj  Depth IntInf | Incumbent    BestBd   Gap | It/Node Time

*    0     0               0      -0.7391797   -0.73918  0.00%     -   14s

Cutting planes:
  Lazy constraints: 4

Explored 0 nodes (7 simplex iterations) in 14.81 seconds
Thread count was 8 (of 8 available processors)

Solution count 1: -0.73918 

Optimal solution found (tolerance 1.00e-04)
Best objective -7.391797025395e-01, best bound -7.391797025395e-01, gap 0.0000%

User-callback calls 75, time in user-callback 18.52 sec
